InboundTrucks  = 80;
OutboundTrucks = 40;
InboundDoors   = 7;
OutboundDoors  = 7;
ReleaseTime    = [74,108,24,116,69,118,45,59,6,84,64,27,77,28,117,36,62,88,100,27,42,56,9,32,24,20,11,56,98,68,46,24,60,100,41,30,81,101,51,54,26,8,55,59,38,27,14,83,105,79,87,42,85,109,112,34,50,100,48,29,54,9,51,95,85,53,0,111,59,27,68,12,44,101,2,47,90,46,1,33];
UnloadTime     = [19,12,37,21,27,14,19,35,33,40,20,41,42,29,21,43,10,15,14,12,32,44,38,17,39,18,21,22,45,38,18,15,19,29,31,34,14,13,45,45,32,39,13,22,27,30,15,27,19,26,39,23,37,17,43,30,25,16,27,21,10,10,35,39,12,31,25,27,40,22,45,44,30,31,11,18,28,32,33,35];
LoadTime       = [17,25,6,28,12,21,7,11,9,26,8,9,15,8,16,5,19,26,11,26,26,26,16,21,26,25,22,11,9,19,22,22,15,14,26,14,28,13,12,18];
TransferTime   = [| 29,0,47,0,0,0,0,0,0,0,0,0,0,0,36,0,0,0,0,0,0,0,27,0,15,0,0,0,0,36,10,23,0,0,0,0,0,47,0,0 | 18,22,0,0,0,0,0,43,0,0,0,0,0,0,17,0,0,0,0,0,27,0,13,43,16,0,34,0,0,0,0,0,0,0,0,34,0,0,19,0 | 0,0,27,0,0,12,43,0,0,0,0,0,0,0,0,0,0,0,0,0,0,0,0,11,0,0,34,13,34,35,0,0,38,0,0,0,0,0,0,0 | 0,0,0,0,0,43,10,0,0,0,0,0,0,0,0,0,0,0,0,0,0,39,0,0,0,0,0,44,0,0,0,0,0,47,20,0,0,0,0,0 | 0,27,0,0,0,18,22,0,19,0,0,21,37,0,32,0,26,10,30,27,50,36,22,0,0,0,0,0,0,0,0,0,0,0,0,19,0,16,0,0 | 0,23,0,0,16,35,0,21,0,0,0,49,0,21,45,0,0,0,13,0,0,0,0,0,0,0,0,33,41,0,0,0,0,0,38,0,0,0,0,14 | 0,0,0,39,0,23,44,18,0,0,0,0,0,49,21,0,0,0,0,0,42,0,0,0,29,0,0,31,0,29,44,0,0,0,12,0,0,0,31,0 | 0,0,0,0,0,16,0,0,0,22,24,0,43,0,0,0,34,0,0,0,0,0,0,0,0,22,0,0,0,0,0,0,48,0,12,0,0,0,0,44 | 22,0,0,21,0,0,0,0,0,0,0,0,0,0,0,0,0,0,0,0,16,0,22,0,50,0,29,25,0,50,50,45,0,0,0,0,0,30,0,38 | 0,0,0,0,0,14,18,0,0,0,0,0,0,13,0,45,37,0,0,41,0,31,0,0,0,46,50,0,0,0,50,0,12,40,0,0,0,0,0,0 | 0,31,31,0,0,24,48,0,0,0,31,0,0,33,0,0,0,0,0,10,0,44,0,0,0,0,0,0,0,0,0,0,41,11,0,0,0,0,0,39 | 0,0,27,0,0,0,0,0,0,0,0,0,0,33,0,0,0,27,0,0,0,0,0,0,30,47,0,0,0,0,0,0,0,0,0,0,0,0,0,0 | 0,30,0,0,0,0,0,0,0,0,0,0,0,33,0,0,0,0,0,0,0,0,0,0,0,0,0,17,16,24,0,10,0,25,0,0,0,0,0,0 | 0,46,0,19,0,0,0,0,0,0,0,23,0,20,0,0,0,28,0,14,0,0,0,0,0,0,0,0,0,27,0,0,0,0,44,0,0,0,15,33 | 0,0,0,0,27,24,31,41,0,0,0,47,0,0,0,0,0,0,0,18,12,0,0,0,33,0,0,21,0,50,40,0,0,0,0,0,0,0,0,39 | 0,0,0,46,33,0,30,34,0,0,0,0,0,15,0,0,0,0,0,0,15,0,0,0,48,0,45,0,0,0,12,0,0,21,0,0,0,0,0,28 | 0,0,0,0,16,0,0,0,0,15,0,43,0,0,26,34,0,0,0,0,0,0,0,0,0,0,0,15,0,0,0,28,0,0,0,0,0,0,0,0 | 0,0,0,0,0,0,30,29,0,0,0,0,0,35,0,0,0,10,0,15,0,13,0,11,43,0,35,0,0,16,0,0,25,0,0,0,0,0,0,0 | 13,45,0,39,0,0,0,0,0,0,0,0,0,0,0,0,0,0,28,0,0,0,0,0,0,0,0,0,0,0,0,0,0,0,0,0,25,0,0,0 | 14,37,45,0,0,0,0,0,0,27,22,0,50,0,0,0,0,0,0,0,0,0,37,0,0,0,0,0,0,16,0,38,0,48,39,0,0,0,0,25 | 0,0,42,0,14,0,0,0,42,0,0,0,0,0,0,0,0,0,32,0,49,0,0,26,0,0,0,0,0,0,0,0,0,0,0,34,0,0,0,0 | 0,0,0,0,0,0,0,0,0,27,0,0,0,0,0,0,0,36,44,0,31,16,0,33,0,0,21,0,0,0,0,0,0,25,29,0,25,0,0,0 | 0,0,0,0,35,0,40,0,0,0,0,26,0,15,30,0,0,0,0,17,19,0,0,0,0,36,0,0,0,25,0,0,0,33,0,0,0,0,0,0 | 0,14,0,47,0,0,0,41,0,0,0,37,0,0,46,0,29,0,0,0,0,0,0,0,0,0,0,0,0,0,0,0,0,0,33,0,0,0,32,41 | 0,0,22,0,0,46,0,0,0,21,0,0,0,0,0,36,41,21,0,0,0,0,0,49,0,0,0,0,0,0,0,0,49,14,16,29,0,0,0,0 | 0,0,0,0,0,10,0,0,28,19,0,0,24,0,0,0,0,0,0,0,46,0,0,0,0,0,33,11,12,0,0,0,37,0,0,0,23,0,26,37 | 35,0,34,26,27,19,18,0,0,0,0,0,0,0,0,0,0,0,0,0,0,14,11,0,16,0,0,0,29,0,18,0,0,0,0,0,0,0,0,0 | 0,0,0,0,0,0,0,0,0,23,24,0,32,17,0,0,0,0,0,0,0,0,17,0,0,0,0,0,0,39,0,18,0,0,0,0,0,0,0,38 | 0,0,0,0,0,0,0,0,0,0,0,0,0,46,22,0,0,0,26,16,0,0,0,48,0,0,0,0,0,28,0,0,47,0,48,0,25,0,14,0 | 23,0,0,0,0,0,0,39,23,0,0,0,17,37,0,0,0,0,0,44,0,0,0,0,0,41,0,0,0,0,0,25,14,16,0,0,0,0,0,0 | 0,0,0,35,0,12,0,0,0,0,0,0,0,0,31,0,19,23,0,0,0,0,0,0,0,0,0,27,0,0,0,0,0,45,0,0,39,0,0,0 | 0,0,0,24,0,0,0,0,0,19,0,0,0,0,0,0,0,0,0,0,0,19,0,0,0,0,0,0,0,0,0,0,0,0,0,22,0,0,26,48 | 12,21,0,0,0,0,0,0,0,0,0,11,0,40,39,0,0,24,36,0,0,0,0,0,16,31,32,0,0,0,44,0,0,0,0,0,0,0,0,0 | 14,17,0,0,0,0,0,0,35,0,32,0,16,0,0,0,0,27,10,45,0,0,0,0,0,0,0,0,0,0,48,0,0,0,0,29,26,0,0,12 | 0,0,0,25,0,0,30,0,25,22,0,38,0,50,32,0,10,0,0,0,0,0,0,0,0,0,0,0,45,0,47,48,0,0,0,0,0,0,0,0 | 25,17,15,0,0,0,0,11,0,0,0,0,46,0,0,0,0,48,0,0,0,0,0,0,0,0,40,0,0,10,0,0,0,0,0,0,21,0,0,22 | 17,0,0,0,32,0,15,0,0,0,27,24,0,0,0,34,19,25,0,0,46,0,0,0,0,0,0,0,0,0,0,0,0,12,0,0,0,0,0,30 | 0,0,11,18,0,0,36,0,31,0,0,0,29,16,0,17,0,12,0,30,0,0,19,0,0,0,18,0,0,0,0,0,0,0,43,0,0,0,0,0 | 0,10,0,27,23,0,0,12,0,0,0,0,0,0,0,0,13,27,0,0,0,0,0,0,31,0,0,0,45,0,16,0,0,33,0,0,28,0,43,0 | 12,32,0,21,0,0,33,0,43,50,0,32,0,0,0,11,0,42,0,45,0,0,0,0,0,0,0,0,0,42,0,0,0,0,45,0,0,0,30,0 | 0,0,0,0,0,0,0,0,26,0,0,0,49,0,0,0,38,0,0,28,0,27,0,0,0,0,0,0,30,0,0,0,47,41,27,0,0,0,0,0 | 0,0,0,13,0,0,0,0,0,0,0,0,0,0,0,0,0,0,15,0,0,0,0,31,0,0,0,0,0,0,0,47,0,29,0,0,0,0,14,0 | 0,0,0,0,0,0,0,0,0,0,29,0,0,0,0,0,41,0,38,0,0,35,25,30,31,43,0,10,0,0,0,0,43,16,27,0,0,39,31,46 | 44,0,0,41,0,30,35,0,0,0,19,0,0,0,0,0,0,0,0,32,0,24,0,50,0,0,0,0,48,0,0,0,0,41,0,0,27,0,0,28 | 0,0,30,0,0,0,11,0,0,0,0,0,0,0,0,46,0,31,0,0,38,0,0,0,0,39,0,0,0,0,0,0,0,0,0,0,0,0,0,0 | 28,33,45,0,0,0,0,36,0,15,0,0,0,0,14,0,0,17,0,0,44,22,0,0,49,0,0,0,0,0,23,43,0,0,0,48,0,0,0,0 | 27,0,0,0,47,0,31,0,49,0,0,0,0,0,0,25,20,22,0,0,0,45,0,0,0,0,0,0,0,0,0,44,0,0,0,42,0,0,0,0 | 0,0,43,25,42,24,0,0,0,0,0,26,0,0,0,0,16,0,0,0,47,0,29,19,0,0,0,0,0,0,0,35,0,0,0,34,10,0,0,0 | 0,0,0,0,0,42,0,0,36,26,0,28,0,0,0,0,28,0,19,0,0,0,0,0,0,0,23,0,13,0,28,0,0,0,24,0,0,0,0,41 | 0,0,0,0,13,0,36,0,0,0,44,0,0,0,0,0,0,0,0,0,40,35,24,0,0,50,0,0,0,38,0,10,0,0,0,49,0,0,0,17 | 0,0,0,0,0,0,24,36,0,0,0,0,21,0,0,35,0,0,29,0,0,0,0,13,12,29,45,0,16,0,22,0,0,0,0,0,0,0,0,0 | 36,0,50,0,0,0,0,0,0,16,14,0,0,0,39,0,0,0,0,0,42,0,37,0,27,24,0,38,0,38,0,35,50,0,0,0,0,0,0,0 | 26,42,20,0,0,0,47,0,0,0,27,0,0,0,0,36,0,47,0,0,34,0,0,0,0,0,0,29,0,0,0,0,0,0,45,0,0,0,0,45 | 0,0,0,15,0,0,0,0,31,0,0,15,0,0,0,35,18,16,41,11,17,0,0,0,0,0,43,0,0,0,0,0,45,0,0,0,19,46,0,0 | 0,0,0,0,21,24,0,37,27,0,0,0,0,20,49,24,0,48,0,0,0,0,11,0,0,22,0,0,0,32,0,0,0,0,36,49,0,0,20,0 | 19,0,0,0,0,0,0,0,0,30,0,34,37,0,0,0,0,46,0,0,38,0,0,0,0,40,0,0,0,0,0,0,0,0,36,0,0,37,0,0 | 36,0,44,0,0,0,15,0,0,0,0,0,47,0,0,0,0,11,0,0,40,0,0,0,0,0,0,0,0,0,23,0,0,0,0,0,0,0,0,0 | 0,0,0,0,0,0,0,0,0,0,27,0,38,0,0,47,0,23,0,27,29,0,0,0,0,14,0,0,0,0,27,48,30,33,0,48,0,0,0,0 | 0,0,0,0,49,0,0,0,0,34,12,0,0,0,0,0,0,0,0,0,0,40,0,0,0,0,0,0,0,0,22,0,0,0,0,0,0,19,0,0 | 0,0,0,0,12,0,10,0,0,0,0,0,0,0,0,26,15,0,0,29,35,0,29,34,0,29,0,30,0,0,0,30,0,0,0,40,19,0,37,0 | 0,33,0,0,0,0,0,0,0,0,0,0,0,0,0,0,0,0,0,0,0,0,30,0,0,0,34,0,0,0,0,0,31,0,36,0,49,0,0,50 | 0,0,0,39,0,0,0,0,49,0,0,0,0,0,0,0,0,0,0,11,0,0,0,0,38,0,0,0,0,0,0,29,0,0,0,0,0,0,23,0 | 29,0,27,0,44,0,11,0,43,0,0,0,0,0,33,0,0,0,42,0,0,0,0,0,0,28,0,0,0,0,0,0,0,0,0,0,0,0,0,0 | 47,0,0,33,0,0,0,0,0,0,0,28,19,0,0,13,0,36,0,0,34,0,0,12,0,0,49,24,0,0,0,0,0,31,0,0,0,27,0,0 | 0,0,0,0,0,0,0,0,10,0,0,0,0,0,0,0,0,0,0,0,0,0,0,15,35,0,0,30,49,0,26,0,0,0,0,36,35,0,10,0 | 32,32,0,0,11,0,0,0,0,0,0,0,13,0,20,0,17,36,40,0,0,19,0,41,0,0,0,0,0,0,0,0,0,0,0,20,0,0,0,46 | 0,0,28,46,0,0,0,40,0,49,0,0,0,0,0,34,18,0,0,0,0,0,0,0,13,0,0,0,13,0,0,0,0,0,0,29,0,0,0,0 | 0,0,0,0,0,22,0,31,0,0,0,0,0,0,26,34,10,0,0,0,0,22,0,0,0,0,0,0,0,0,0,0,0,0,0,0,0,43,0,0 | 0,0,0,0,0,31,0,0,0,0,0,0,0,0,17,41,0,15,0,0,0,0,23,0,0,28,0,0,0,0,0,0,0,19,0,0,28,22,0,0 | 13,0,0,0,0,0,0,0,25,12,0,0,0,0,0,46,12,21,0,0,45,0,0,0,0,0,0,0,0,0,0,0,0,47,0,0,0,0,0,0 | 0,0,0,34,23,47,0,44,0,0,0,0,23,39,0,0,0,0,17,0,0,0,0,0,0,33,0,13,21,22,0,0,0,0,0,0,0,10,0,45 | 0,0,0,0,0,27,35,25,0,0,44,0,0,0,0,23,0,0,34,12,0,0,46,0,0,50,0,48,35,46,0,0,0,0,0,0,0,0,0,19 | 30,0,0,19,0,0,46,44,0,15,0,0,49,0,34,38,0,0,35,0,0,0,39,0,0,0,0,0,0,19,0,0,33,0,0,0,0,0,38,0 | 46,0,0,0,0,25,40,0,0,27,0,31,0,0,0,0,0,24,0,0,0,0,0,0,0,0,0,0,0,0,0,0,0,0,0,0,0,0,0,0 | 0,0,0,0,46,40,34,0,0,0,0,38,0,0,0,47,0,0,0,36,0,12,0,0,12,0,0,0,0,47,0,0,0,0,35,0,0,0,0,0 | 0,0,0,0,0,34,0,0,0,44,0,0,0,0,38,0,0,0,32,0,0,0,26,0,0,49,0,0,0,0,0,50,0,0,43,0,11,0,36,10 | 0,46,0,0,0,39,0,0,0,37,0,40,27,0,0,0,0,0,0,0,0,10,0,0,0,23,0,38,0,0,0,35,0,0,0,0,0,0,0,0 | 0,0,0,0,0,0,0,0,0,0,0,0,0,29,0,0,42,0,0,0,0,0,0,0,0,0,0,0,15,33,0,0,0,0,0,0,0,0,0,0 | 0,0,0,36,0,0,0,42,0,43,0,0,0,0,0,0,0,42,0,0,0,0,0,0,0,0,0,0,0,0,0,0,28,17,23,0,0,0,0,0 | 0,0,0,0,0,0,0,0,43,0,0,28,0,0,0,0,0,0,0,0,0,50,0,0,0,0,0,0,0,0,25,0,0,0,35,0,34,15,0,14 |];
